c description: Random 3-CNF over 25 variables and 107 clauses
c generator: CNFgen (0.9.2)
c copyright: (C) 2012-2022 Massimo Lauria <massimo.lauria@uniroma1.it>
c url: https://massimolauria.net/cnfgen
c command line: cnfgen --output CNF_4.28/25_bit_107_803.cnf randkcnf 3 25 107
c
p cnf 25 107
5 -11 -21 0
11 24 -25 0
18 -20 -24 0
10 14 25 0
16 -17 -21 0
-4 -17 18 0
6 8 -14 0
5 8 -15 0
-11 12 -15 0
-15 23 -24 0
4 -6 -12 0
-15 17 -25 0
-6 -12 -19 0
-6 7 -16 0
-18 19 24 0
-1 -4 17 0
1 -7 12 0
-1 13 -21 0
5 6 -19 0
2 -3 -4 0
1 -15 24 0
1 -12 -14 0
8 17 -18 0
16 -19 -25 0
-11 -16 17 0
11 14 -22 0
8 -13 23 0
13 21 23 0
7 10 21 0
21 -22 -24 0
-4 -5 24 0
3 -12 23 0
12 16 20 0
-4 -8 23 0
4 -5 23 0
4 -14 -23 0
9 10 -22 0
-13 24 25 0
-7 -11 -17 0
-1 -13 17 0
12 17 -22 0
-3 19 -22 0
10 -18 23 0
2 -7 -24 0
13 -16 -20 0
2 5 17 0
7 -16 -18 0
8 -19 24 0
1 14 21 0
5 -12 -16 0
-14 -22 -23 0
-1 13 18 0
-5 -6 15 0
-12 16 18 0
10 17 19 0
-20 -21 -23 0
-7 17 -23 0
-18 21 25 0
5 10 25 0
-10 13 25 0
-3 -16 -17 0
6 10 16 0
-1 -13 -16 0
4 -7 20 0
15 -17 -25 0
11 13 17 0
-6 -16 -21 0
4 7 21 0
-7 -15 -22 0
-1 -8 9 0
14 15 25 0
-14 -15 -16 0
2 -4 -7 0
-4 -20 -24 0
13 21 -22 0
1 -15 -16 0
2 6 -20 0
13 -15 23 0
-12 19 24 0
13 21 22 0
-1 15 -21 0
2 -7 -15 0
-10 14 17 0
-3 15 23 0
4 -6 -20 0
-1 3 -6 0
2 -4 25 0
-2 -9 -22 0
-14 -20 22 0
4 14 -20 0
-5 14 -22 0
12 -18 24 0
10 15 18 0
-1 -3 -18 0
-3 -20 23 0
-6 -12 -24 0
-3 -6 21 0
-5 8 10 0
6 -9 -18 0
3 15 -22 0
4 -9 -11 0
-7 -19 -23 0
-1 -11 -24 0
-15 -18 -22 0
-1 -20 -25 0
-15 -18 21 0
2 11 -25 0
